20
0 1 0.3 0.16
0 2 0.6 0.2
0 3 0.72 0.48
0 4 0.7 0.26
0 5 0.74 0.36
0 6 0.6 0.17
0 7 0.68 0.42
0 8 0.74 0.29
0 9 0.52 0.16
0 10 0.41 0.12
0 11 0.78 0.14
0 12 0.62 0.21
0 13 0.56 0.4
0 14 0.5 0.38
0 15 0.34 0.27
0 16 0.54 0.32
0 17 0.65 0.1
0 18 0.62 0.27
0 19 0.84 0.34
1 2 0.64 0.17
1 3 0.53 0.4
1 4 0.6 0.1
1 5 0.44 0.26
1 6 0.3 0.1
1 7 0.71 0.43
1 8 0.6 0.28
1 9 0.5 0.23
1 10 0.11 0.04
1 11 0.48 0.29
1 12 0.33 0.16
1 13 0.65 0.43
1 14 0.76 0.38
1 15 0.2 0.16
1 16 0.24 0.16
1 17 0.51 0.17
1 18 0.52 0.38
1 19 0.56 0.29
2 3 0.66 0.32
2 4 0.52 0.27
2 5 0.52 0.31
2 6 0.65 0.27
2 7 0.5 0.42
2 8 0.34 0.24
2 9 0.56 0.21
2 10 0.63 0.21
2 11 0.6 0.24
2 12 0.36 0.01
2 13 0.52 0.33
2 14 0.7 0.37
2 15 0.74 0.33
2 16 0.72 0.23
2 17 0.7 0.27
2 18 0.68 0.24
2 19 0.47 0.14
3 4 0.66 0.48
3 5 0.32 0.25
3 6 0.6 0.47
3 7 0.76 0.3
3 8 0.66 0.54
3 9 0.49 0.38
3 10 0.42 0.36
3 11 0.6 0.44
3 12 0.72 0.31
3 13 0.76 0.54
3 14 0.68 0.5
3 15 0.68 0.36
3 16 0.46 0.35
3 17 0.66 0.44
3 18 0.62 0.34
3 19 0.77 0.18
4 5 0.76 0.28
4 6 0.47 0.2
4 7 0.62 0.38
4 8 0.55 0.18
4 9 0.78 0.33
4 10 0.7 0.14
4 11 0.8 0.33
4 12 0.72 0.26
4 13 0.83 0.33
4 14 0.79 0.33
4 15 0.52 0.22
4 16 0.56 0.19
4 17 0.74 0.27
4 18 0.67 0.42
4 19 0.7 0.3
5 6 0.6 0.22
5 7 0.54 0.2
5 8 0.75 0.29
5 9 0.46 0.25
5 10 0.37 0.24
5 11 0.82 0.44
5 12 0.4 0.3
5 13 0.48 0.44
5 14 0.64 0.45
5 15 0.42 0.11
5 16 0.2 0.1
5 17 0.34 0.27
5 18 0.46 0.33
5 19 0.52 0.36
6 7 0.8 0.33
6 8 0.82 0.33
6 9 0.52 0.13
6 10 0.41 0.14
6 11 0.78 0.28
6 12 0.63 0.26
6 13 0.6 0.44
6 14 0.7 0.35
6 15 0.5 0.18
6 16 0.4 0.26
6 17 0.41 0.07
6 18 0.7 0.4
6 19 0.38 0.3
7 8 0.64 0.34
7 9 0.86 0.45
7 10 0.68 0.44
7 11 0.5 0.42
7 12 0.5 0.43
7 13 0.56 0.48
7 14 0.66 0.46
7 15 0.66 0.31
7 16 0.47 0.3
7 17 0.84 0.4
7 18 0.6 0.4
7 19 0.54 0.48
8 9 0.53 0.32
8 10 0.71 0.32
8 11 0.34 0.15
8 12 0.64 0.25
8 13 0.36 0.15
8 14 0.58 0.26
8 15 0.4 0.18
8 16 0.62 0.3
8 17 0.41 0.26
8 18 0.34 0.26
8 19 0.48 0.38
9 10 0.61 0.27
9 11 0.66 0.3
9 12 0.62 0.22
9 13 0.68 0.47
9 14 0.36 0.22
9 15 0.5 0.14
9 16 0.66 0.26
9 17 0.73 0.06
9 18 0.38 0.36
9 19 0.78 0.35
10 11 0.59 0.26
10 12 0.37 0.2
10 13 0.69 0.47
10 14 0.72 0.42
10 15 0.31 0.2
10 16 0.35 0.2
10 17 0.62 0.21
10 18 0.57 0.39
10 19 0.67 0.33
11 12 0.48 0.25
11 13 0.7 0.3
11 14 0.5 0.41
11 15 0.68 0.33
11 16 0.72 0.44
11 17 0.54 0.24
11 18 0.68 0.38
11 19 0.44 0.26
12 13 0.44 0.32
12 14 0.67 0.38
12 15 0.43 0.32
12 16 0.52 0.22
12 17 0.74 0.28
12 18 0.72 0.25
12 19 0.52 0.13
13 14 0.72 0.41
13 15 0.45 0.33
13 16 0.6 0.45
13 17 0.73 0.41
13 18 0.43 0.38
13 19 0.82 0.36
14 15 0.56 0.34
14 16 0.78 0.46
14 17 0.64 0.28
14 18 0.72 0.2
14 19 0.84 0.36
15 16 0.22 0.12
15 17 0.31 0.2
15 18 0.34 0.22
15 19 0.54 0.3
16 17 0.53 0.32
16 18 0.56 0.34
16 19 0.32 0.26
17 18 0.52 0.37
17 19 0.5 0.33
18 19 0.52 0.16
